p edge 100 508
e 1 7
e 1 20
e 1 30
e 1 43
e 1 57
e 1 58
e 1 79
e 1 92
e 2 9
e 2 27
e 2 28
e 2 37
e 2 38
e 2 43
e 2 46
e 2 47
e 2 83
e 2 95
e 3 20
e 3 21
e 3 22
e 3 26
e 3 34
e 3 52
e 3 68
e 3 78
e 3 84
e 4 22
e 4 26
e 4 40
e 4 45
e 4 82
e 5 7
e 5 8
e 5 9
e 5 18
e 5 50
e 5 57
e 5 68
e 5 90
e 5 92
e 6 22
e 6 28
e 6 36
e 6 42
e 6 53
e 6 63
e 6 65
e 6 73
e 6 76
e 6 77
e 6 81
e 6 84
e 6 94
e 7 11
e 7 25
e 7 33
e 7 40
e 7 47
e 7 50
e 7 52
e 7 53
e 7 61
e 7 68
e 7 70
e 7 77
e 7 81
e 7 82
e 7 96
e 7 99
e 8 9
e 8 23
e 8 24
e 8 25
e 8 31
e 8 38
e 8 41
e 8 67
e 8 68
e 8 73
e 8 77
e 8 78
e 8 79
e 8 88
e 8 94
e 8 95
e 9 14
e 9 19
e 9 22
e 9 60
e 9 67
e 9 73
e 9 82
e 9 83
e 9 84
e 10 49
e 10 56
e 10 68
e 10 72
e 10 75
e 10 85
e 10 89
e 10 94
e 10 97
e 10 100
e 11 27
e 11 30
e 11 32
e 11 39
e 11 52
e 11 68
e 11 70
e 11 80
e 11 92
e 12 33
e 12 36
e 12 41
e 12 45
e 12 49
e 12 60
e 12 63
e 12 77
e 12 87
e 12 96
e 12 99
e 13 15
e 13 19
e 13 30
e 13 35
e 13 36
e 13 42
e 13 56
e 13 73
e 13 75
e 13 84
e 13 87
e 13 88
e 13 93
e 14 16
e 14 17
e 14 19
e 14 27
e 14 31
e 14 35
e 14 41
e 14 42
e 14 52
e 14 53
e 14 61
e 14 65
e 14 78
e 14 82
e 14 89
e 15 37
e 15 38
e 15 65
e 15 66
e 15 68
e 15 95
e 16 18
e 16 25
e 16 33
e 16 36
e 16 59
e 16 89
e 16 99
e 17 21
e 17 30
e 17 33
e 17 35
e 17 70
e 17 71
e 17 83
e 17 90
e 17 95
e 18 57
e 18 60
e 18 76
e 18 78
e 18 79
e 18 92
e 18 95
e 18 98
e 19 21
e 19 24
e 19 34
e 19 49
e 19 59
e 19 62
e 19 66
e 19 69
e 19 73
e 19 74
e 19 76
e 19 79
e 19 97
e 19 99
e 20 22
e 20 24
e 20 26
e 20 31
e 20 37
e 20 40
e 20 42
e 20 53
e 20 64
e 20 67
e 20 68
e 20 69
e 20 75
e 20 88
e 21 27
e 21 28
e 21 32
e 21 36
e 21 42
e 21 81
e 21 84
e 21 87
e 22 40
e 22 42
e 22 61
e 22 62
e 22 73
e 22 79
e 22 96
e 23 41
e 23 58
e 23 61
e 23 71
e 23 78
e 23 79
e 23 87
e 23 92
e 24 27
e 24 28
e 24 33
e 24 43
e 24 77
e 25 54
e 25 68
e 25 72
e 25 85
e 26 82
e 26 84
e 26 97
e 27 37
e 27 40
e 27 49
e 27 51
e 27 67
e 27 68
e 27 72
e 27 89
e 27 90
e 27 94
e 27 97
e 28 33
e 28 45
e 28 48
e 28 75
e 28 85
e 28 94
e 29 33
e 29 42
e 29 59
e 29 60
e 29 64
e 29 83
e 29 87
e 29 91
e 29 95
e 29 97
e 30 37
e 30 38
e 30 45
e 30 59
e 30 76
e 30 79
e 31 32
e 31 35
e 31 70
e 32 56
e 32 65
e 32 66
e 32 83
e 32 85
e 33 41
e 33 57
e 33 74
e 33 86
e 33 95
e 34 37
e 34 39
e 34 50
e 34 70
e 34 76
e 34 90
e 34 95
e 35 52
e 35 54
e 35 58
e 35 66
e 35 86
e 35 87
e 35 88
e 35 98
e 36 57
e 36 73
e 36 92
e 36 99
e 36 100
e 37 60
e 37 69
e 37 86
e 37 92
e 37 96
e 37 97
e 37 100
e 38 39
e 38 63
e 39 42
e 39 66
e 39 72
e 39 79
e 39 83
e 39 91
e 40 47
e 40 59
e 40 73
e 40 93
e 41 59
e 41 63
e 41 75
e 41 81
e 41 92
e 42 49
e 42 58
e 43 45
e 43 50
e 43 52
e 43 74
e 43 79
e 43 94
e 44 59
e 44 63
e 44 64
e 44 72
e 44 75
e 44 82
e 44 93
e 44 97
e 44 100
e 45 48
e 45 49
e 45 53
e 45 62
e 45 93
e 45 94
e 45 100
e 46 52
e 46 74
e 46 78
e 46 79
e 46 90
e 46 94
e 47 56
e 47 75
e 47 80
e 47 81
e 47 83
e 47 87
e 48 63
e 48 68
e 48 75
e 48 78
e 48 83
e 48 93
e 49 70
e 49 72
e 49 83
e 50 63
e 50 64
e 50 67
e 50 80
e 50 81
e 50 82
e 51 69
e 51 74
e 51 77
e 52 56
e 52 73
e 52 94
e 52 96
e 53 54
e 53 59
e 53 73
e 53 81
e 53 86
e 53 95
e 53 100
e 54 64
e 54 84
e 54 98
e 55 56
e 55 58
e 55 76
e 55 77
e 55 85
e 56 72
e 56 84
e 57 62
e 57 83
e 58 60
e 58 71
e 58 77
e 58 80
e 58 93
e 59 70
e 59 72
e 59 79
e 59 94
e 59 96
e 60 65
e 60 71
e 60 85
e 60 100
e 61 67
e 62 73
e 62 96
e 62 99
e 63 65
e 63 67
e 63 90
e 63 95
e 64 69
e 64 71
e 64 75
e 64 86
e 64 93
e 64 94
e 65 66
e 65 70
e 65 76
e 65 79
e 65 81
e 65 95
e 66 77
e 66 78
e 66 81
e 66 95
e 67 70
e 67 79
e 67 87
e 68 73
e 68 74
e 68 75
e 68 80
e 68 85
e 68 97
e 69 91
e 69 93
e 70 81
e 70 82
e 70 83
e 70 98
e 71 72
e 71 81
e 71 87
e 71 89
e 72 78
e 72 83
e 72 90
e 72 97
e 72 98
e 73 94
e 73 99
e 74 81
e 74 89
e 74 91
e 74 94
e 75 80
e 75 82
e 75 84
e 75 87
e 75 89
e 76 79
e 76 94
e 77 78
e 77 87
e 77 93
e 77 94
e 77 100
e 78 79
e 79 81
e 79 91
e 79 93
e 79 96
e 79 99
e 80 86
e 80 91
e 80 94
e 82 88
e 83 99
e 90 95
e 90 98
e 94 98
e 99 100
